\Problem name: ilog.cplex

Maximize
 obj: lambda
Subject To
 Positiveness_Route_22_(6_5_10_9_4): Route_22_(6_5_10_9_4) >= 0
 Positiveness_Route_23_(6_7_9_4): Route_23_(6_7_9_4) >= 0
 Positiveness_Route_24_(6_8_10_5_10_9_4): Route_24_(6_8_10_5_10_9_4) >= 0
 Positiveness_Route_25_(6_8_10_9_4): Route_25_(6_8_10_9_4) >= 0
 Positiveness_Route_8_(5_10_12_3): Route_8_(5_10_12_3) >= 0
 Positiveness_Route_9_(5_10_9_11_12_3): Route_9_(5_10_9_11_12_3) >= 0
 Positiveness_Route_17_(6_5_10_9_11_12_3): Route_17_(6_5_10_9_11_12_3) >= 0
 Positiveness_Route_18_(6_7_9_11_12_3): Route_18_(6_7_9_11_12_3) >= 0
 Positiveness_Route_19_(6_8_10_5_10_9_11_12_3):
                                 Route_19_(6_8_10_5_10_9_11_12_3) >= 0
 Positiveness_Route_20_(6_8_10_9_11_12_3): Route_20_(6_8_10_9_11_12_3) >= 0
 Positiveness_Route_21_(6_8_10_9_4_9_11_12_3): Route_21_(6_8_10_9_4_9_11_12_3)
                                 >= 0
 Positiveness_Route_12_(6_5_10_9_11_2): Route_12_(6_5_10_9_11_2) >= 0
 Positiveness_Route_13_(6_7_9_11_2): Route_13_(6_7_9_11_2) >= 0
 Positiveness_Route_14_(6_8_10_5_10_9_11_2): Route_14_(6_8_10_5_10_9_11_2) >= 0
 Positiveness_Route_15_(6_8_10_9_11_2): Route_15_(6_8_10_9_11_2) >= 0
 Positiveness_Route_16_(6_8_10_9_4_9_11_2): Route_16_(6_8_10_9_4_9_11_2) >= 0
 Positiveness_Route_6_(5_10_12_11_2): Route_6_(5_10_12_11_2) >= 0
 Positiveness_Route_7_(5_10_9_11_2): Route_7_(5_10_9_11_2) >= 0
 Positiveness_Route_26_(6_5):    Route_26_(6_5) >= 0
 Positiveness_Route_27_(6_7_9_10_5): Route_27_(6_7_9_10_5) >= 0
 Positiveness_Route_28_(6_8_10_5): Route_28_(6_8_10_5) >= 0
 Positiveness_Route_1_(4_9_10_12_11_2): Route_1_(4_9_10_12_11_2) >= 0
 Positiveness_Route_2_(4_9_11_2): Route_2_(4_9_11_2) >= 0
 Positiveness_Route_10_(5_10_9_4): Route_10_(5_10_9_4) >= 0
 Positiveness_Route_5_(4_9_10_5): Route_5_(4_9_10_5) >= 0
 Positiveness_Route_11_(6_7_1):  Route_11_(6_7_1) >= 0
 Positiveness_Route_3_(4_9_10_12_3): Route_3_(4_9_10_12_3) >= 0
 Positiveness_Route_4_(4_9_11_12_3): Route_4_(4_9_11_12_3) >= 0
 Lower_bound:                    399.99961725263 Route_22_(6_5_10_9_4)
                                 + 39.999961725263 Route_23_(6_7_9_4)
                                 + 399.99961725263 Route_24_(6_8_10_5_10_9_4)
                                 + 399.99961725263 Route_25_(6_8_10_9_4)
                                 + 9937.08553147399 Route_8_(5_10_12_3)
                                 + 993.708553147399 Route_9_(5_10_9_11_12_3)
                                 + 9302.92453765817 Route_17_(6_5_10_9_11_12_3)
                                 + 930.292453765817 Route_18_(6_7_9_11_12_3)
                                 + 9302.92453765817 Route_19_(6_8_10_5_10_9_11_12_3)
                                 + 9302.92453765817 Route_20_(6_8_10_9_11_12_3)
                                 + 9302.92453765817 Route_21_(6_8_10_9_4_9_11_12_3)
                                 + 698.306475158215 Route_12_(6_5_10_9_11_2)
                                 + 69.8306475158215 Route_13_(6_7_9_11_2)
                                 + 698.306475158215 Route_14_(6_8_10_5_10_9_11_2)
                                 + 698.306475158215 Route_15_(6_8_10_9_11_2)
                                 + 698.306475158215 Route_16_(6_8_10_9_4_9_11_2)
                                 + 1332.46746897403 Route_6_(5_10_12_11_2)
                                 + 133.246746897403 Route_7_(5_10_9_11_2)
                                 + 39.9999874220532 Route_26_(6_5)
                                 + 399.999874220532 Route_27_(6_7_9_10_5)
                                 + 399.999874220532 Route_28_(6_8_10_5)
                                 + 498.301053123933 Route_1_(4_9_10_12_11_2)
                                 + 49.8301053123933 Route_2_(4_9_11_2)
                                 + 103.416061106845 Route_10_(5_10_9_4)
                                 + 30.9028292742603 Route_5_(4_9_10_5)
                                 + 19.9994177290943 Route_11_(6_7_1)
                                 + 9102.91911562389 Route_3_(4_9_10_12_3)
                                 + 910.291911562389 Route_4_(4_9_11_12_3) >= 0
 Upper_bound:                    399.99961725263 Route_22_(6_5_10_9_4)
                                 + 39.999961725263 Route_23_(6_7_9_4)
                                 + 399.99961725263 Route_24_(6_8_10_5_10_9_4)
                                 + 399.99961725263 Route_25_(6_8_10_9_4)
                                 + 9937.08553147399 Route_8_(5_10_12_3)
                                 + 993.708553147399 Route_9_(5_10_9_11_12_3)
                                 + 9302.92453765817 Route_17_(6_5_10_9_11_12_3)
                                 + 930.292453765817 Route_18_(6_7_9_11_12_3)
                                 + 9302.92453765817 Route_19_(6_8_10_5_10_9_11_12_3)
                                 + 9302.92453765817 Route_20_(6_8_10_9_11_12_3)
                                 + 9302.92453765817 Route_21_(6_8_10_9_4_9_11_12_3)
                                 + 698.306475158215 Route_12_(6_5_10_9_11_2)
                                 + 69.8306475158215 Route_13_(6_7_9_11_2)
                                 + 698.306475158215 Route_14_(6_8_10_5_10_9_11_2)
                                 + 698.306475158215 Route_15_(6_8_10_9_11_2)
                                 + 698.306475158215 Route_16_(6_8_10_9_4_9_11_2)
                                 + 1332.46746897403 Route_6_(5_10_12_11_2)
                                 + 133.246746897403 Route_7_(5_10_9_11_2)
                                 + 39.9999874220532 Route_26_(6_5)
                                 + 399.999874220532 Route_27_(6_7_9_10_5)
                                 + 399.999874220532 Route_28_(6_8_10_5)
                                 + 498.301053123933 Route_1_(4_9_10_12_11_2)
                                 + 49.8301053123933 Route_2_(4_9_11_2)
                                 + 103.416061106845 Route_10_(5_10_9_4)
                                 + 30.9028292742603 Route_5_(4_9_10_5)
                                 + 19.9994177290943 Route_11_(6_7_1)
                                 + 9102.91911562389 Route_3_(4_9_10_12_3)
                                 + 910.291911562389 Route_4_(4_9_11_12_3)
                                 <= 526666
 Link_count_7_1:                 50 lambda + Route_11_(6_7_1) <= 550
 Link_count_7_1:                 - 50 lambda + Route_11_(6_7_1) >= 450
 Link_count_6_7:                 500 lambda + Route_23_(6_7_9_4)
                                 + Route_18_(6_7_9_11_12_3)
                                 + Route_13_(6_7_9_11_2)
                                 + Route_27_(6_7_9_10_5) + Route_11_(6_7_1)
                                 <= 5500
 Link_count_6_7:                 - 500 lambda + Route_23_(6_7_9_4)
                                 + Route_18_(6_7_9_11_12_3)
                                 + Route_13_(6_7_9_11_2)
                                 + Route_27_(6_7_9_10_5) + Route_11_(6_7_1)
                                 >= 4500
 Link_count_7_9:                 450 lambda + Route_23_(6_7_9_4)
                                 + Route_18_(6_7_9_11_12_3)
                                 + Route_13_(6_7_9_11_2)
                                 + Route_27_(6_7_9_10_5) <= 4950
 Link_count_7_9:                 - 450 lambda + Route_23_(6_7_9_4)
                                 + Route_18_(6_7_9_11_12_3)
                                 + Route_13_(6_7_9_11_2)
                                 + Route_27_(6_7_9_10_5) >= 4050
 Link_count_6_5:                 10 lambda + Route_22_(6_5_10_9_4)
                                 + Route_17_(6_5_10_9_11_12_3)
                                 + Route_12_(6_5_10_9_11_2) + Route_26_(6_5)
                                 <= 110
 Link_count_6_5:                 - 10 lambda + Route_22_(6_5_10_9_4)
                                 + Route_17_(6_5_10_9_11_12_3)
                                 + Route_12_(6_5_10_9_11_2) + Route_26_(6_5)
                                 >= 90
 Link_count_4_9:                 240 lambda + Route_21_(6_8_10_9_4_9_11_12_3)
                                 + Route_16_(6_8_10_9_4_9_11_2)
                                 + Route_1_(4_9_10_12_11_2)
                                 + Route_2_(4_9_11_2) + Route_5_(4_9_10_5)
                                 + Route_3_(4_9_10_12_3)
                                 + Route_4_(4_9_11_12_3) <= 2640
 Link_count_4_9:                 - 240 lambda + Route_21_(6_8_10_9_4_9_11_12_3)
                                 + Route_16_(6_8_10_9_4_9_11_2)
                                 + Route_1_(4_9_10_12_11_2)
                                 + Route_2_(4_9_11_2) + Route_5_(4_9_10_5)
                                 + Route_3_(4_9_10_12_3)
                                 + Route_4_(4_9_11_12_3) >= 2160
 Link_count_8_10:                50 lambda + Route_24_(6_8_10_5_10_9_4)
                                 + Route_25_(6_8_10_9_4)
                                 + Route_19_(6_8_10_5_10_9_11_12_3)
                                 + Route_20_(6_8_10_9_11_12_3)
                                 + Route_21_(6_8_10_9_4_9_11_12_3)
                                 + Route_14_(6_8_10_5_10_9_11_2)
                                 + Route_15_(6_8_10_9_11_2)
                                 + Route_16_(6_8_10_9_4_9_11_2)
                                 + Route_28_(6_8_10_5) <= 550
 Link_count_8_10:                - 50 lambda + Route_24_(6_8_10_5_10_9_4)
                                 + Route_25_(6_8_10_9_4)
                                 + Route_19_(6_8_10_5_10_9_11_12_3)
                                 + Route_20_(6_8_10_9_11_12_3)
                                 + Route_21_(6_8_10_9_4_9_11_12_3)
                                 + Route_14_(6_8_10_5_10_9_11_2)
                                 + Route_15_(6_8_10_9_11_2)
                                 + Route_16_(6_8_10_9_4_9_11_2)
                                 + Route_28_(6_8_10_5) >= 450
 Link_count_9_4:                 200 lambda + Route_22_(6_5_10_9_4)
                                 + Route_23_(6_7_9_4)
                                 + Route_24_(6_8_10_5_10_9_4)
                                 + Route_25_(6_8_10_9_4)
                                 + Route_21_(6_8_10_9_4_9_11_12_3)
                                 + Route_16_(6_8_10_9_4_9_11_2)
                                 + Route_10_(5_10_9_4) <= 2200
 Link_count_9_4:                 - 200 lambda + Route_22_(6_5_10_9_4)
                                 + Route_23_(6_7_9_4)
                                 + Route_24_(6_8_10_5_10_9_4)
                                 + Route_25_(6_8_10_9_4)
                                 + Route_21_(6_8_10_9_4_9_11_12_3)
                                 + Route_16_(6_8_10_9_4_9_11_2)
                                 + Route_10_(5_10_9_4) >= 1800
 Link_count_6_8:                 50 lambda + Route_24_(6_8_10_5_10_9_4)
                                 + Route_25_(6_8_10_9_4)
                                 + Route_19_(6_8_10_5_10_9_11_12_3)
                                 + Route_20_(6_8_10_9_11_12_3)
                                 + Route_21_(6_8_10_9_4_9_11_12_3)
                                 + Route_14_(6_8_10_5_10_9_11_2)
                                 + Route_15_(6_8_10_9_11_2)
                                 + Route_16_(6_8_10_9_4_9_11_2)
                                 + Route_28_(6_8_10_5) <= 550
 Link_count_6_8:                 - 50 lambda + Route_24_(6_8_10_5_10_9_4)
                                 + Route_25_(6_8_10_9_4)
                                 + Route_19_(6_8_10_5_10_9_11_12_3)
                                 + Route_20_(6_8_10_9_11_12_3)
                                 + Route_21_(6_8_10_9_4_9_11_12_3)
                                 + Route_14_(6_8_10_5_10_9_11_2)
                                 + Route_15_(6_8_10_9_11_2)
                                 + Route_16_(6_8_10_9_4_9_11_2)
                                 + Route_28_(6_8_10_5) >= 450
 Link_count_11_2:                480 lambda + Route_12_(6_5_10_9_11_2)
                                 + Route_13_(6_7_9_11_2)
                                 + Route_14_(6_8_10_5_10_9_11_2)
                                 + Route_15_(6_8_10_9_11_2)
                                 + Route_16_(6_8_10_9_4_9_11_2)
                                 + Route_6_(5_10_12_11_2)
                                 + Route_7_(5_10_9_11_2)
                                 + Route_1_(4_9_10_12_11_2)
                                 + Route_2_(4_9_11_2) <= 5280
 Link_count_11_2:                - 480 lambda + Route_12_(6_5_10_9_11_2)
                                 + Route_13_(6_7_9_11_2)
                                 + Route_14_(6_8_10_5_10_9_11_2)
                                 + Route_15_(6_8_10_9_11_2)
                                 + Route_16_(6_8_10_9_4_9_11_2)
                                 + Route_6_(5_10_12_11_2)
                                 + Route_7_(5_10_9_11_2)
                                 + Route_1_(4_9_10_12_11_2)
                                 + Route_2_(4_9_11_2) >= 4320
Bounds
 0 <= lambda <= 1
 0 <= Route_22_(6_5_10_9_4) <= 2147483647
 0 <= Route_23_(6_7_9_4) <= 2147483647
 0 <= Route_24_(6_8_10_5_10_9_4) <= 2147483647
 0 <= Route_25_(6_8_10_9_4) <= 2147483647
 0 <= Route_8_(5_10_12_3) <= 2147483647
 0 <= Route_9_(5_10_9_11_12_3) <= 2147483647
 0 <= Route_17_(6_5_10_9_11_12_3) <= 2147483647
 0 <= Route_18_(6_7_9_11_12_3) <= 2147483647
 0 <= Route_19_(6_8_10_5_10_9_11_12_3) <= 2147483647
 0 <= Route_20_(6_8_10_9_11_12_3) <= 2147483647
 0 <= Route_21_(6_8_10_9_4_9_11_12_3) <= 2147483647
 0 <= Route_12_(6_5_10_9_11_2) <= 2147483647
 0 <= Route_13_(6_7_9_11_2) <= 2147483647
 0 <= Route_14_(6_8_10_5_10_9_11_2) <= 2147483647
 0 <= Route_15_(6_8_10_9_11_2) <= 2147483647
 0 <= Route_16_(6_8_10_9_4_9_11_2) <= 2147483647
 0 <= Route_6_(5_10_12_11_2) <= 2147483647
 0 <= Route_7_(5_10_9_11_2) <= 2147483647
 0 <= Route_26_(6_5) <= 2147483647
 0 <= Route_27_(6_7_9_10_5) <= 2147483647
 0 <= Route_28_(6_8_10_5) <= 2147483647
 0 <= Route_1_(4_9_10_12_11_2) <= 2147483647
 0 <= Route_2_(4_9_11_2) <= 2147483647
 0 <= Route_10_(5_10_9_4) <= 2147483647
 0 <= Route_5_(4_9_10_5) <= 2147483647
 0 <= Route_11_(6_7_1) <= 2147483647
 0 <= Route_3_(4_9_10_12_3) <= 2147483647
 0 <= Route_4_(4_9_11_12_3) <= 2147483647
End
